1235202
0,4,34,97,100,33,51,28,58,83,50,1,80,45,93,106,15,24,82,2,62,19,43,31,94,42,84,60,5,29,102,55,91,73,47,79,16,52,99,101,53,57,103,96,90,88,10,48,30,38,46,70,98,104,20,12,92,95,86,61,18,72,75,49,17,6,87,41,59,105,107,77,32,54,64,11,35,27,39,67,7,13,69,68,26,85,74,56,71,37,40,25,36,8,76,65,9,63,21,14,22,66,3,78,23,108,89,44,81,0